33D32945 STP File, STP Format Version 1.0

SECTION Comments
Name "shell_n13_d3_s19"
Problem "Euclidean Steiner Tree Problem"
Remark "Generated with STPGenerator. 3 dimensions."
END

SECTION Graph
Nodes 13
END

SECTION Coordinates
DDD 0 -0.5464878545 -0.4486525409 -0.7071505656
DDD 1 -0.5740215808 0.2609352868 -0.7761520475
DDD 2 0.5293494127 0.0763941212 -0.8449574768
DDD 3 -0.7037163936 0.7081095806 -0.0580005105
DDD 4 -0.4723956407 0.0560200744 0.8796045190
DDD 5 -0.8798267543 0.0538551202 -0.4722335316
DDD 6 -0.4665442907 0.8462202568 0.2573862888
DDD 7 -0.9391839431 0.0304261310 0.3420639875
DDD 8 0.7980621881 -0.4071505850 -0.4442129501
DDD 9 0.8842329344 -0.4054676206 -0.2317932837
DDD 10 -0.7303960972 -0.3529219113 -0.5847800148
DDD 11 -0.6753271831 0.2743102250 -0.6846072569
DDD 12 0.8399580520 -0.0075334509 0.5425990398
END
